sat
(:added-eqs           1926472
 :binary-propagations 54112
 :conflicts           7088
 :decisions           15593
 :del-clause          2900
 :dyn-ack             11
 :final-checks        1
 :max-memory          54.91
 :memory              18.24
 :minimized-lits      65580
 :mk-bool-var         1526
 :mk-clause           6819
 :mk-clause-binary    449
 :num-allocs          1968612331
 :num-checks          1
 :propagations        184341
 :restarts            30
 :rlimit-count        3888127
 :time                0.66
 :total-time          1.28)
